p edge 242
e 0 5
e 0 28
e 0 30
e 0 97
e 0 98
e 0 141
e 0 152
e 0 182
e 0 210
e 1 2
e 1 38
e 1 41
e 1 62
e 1 133
e 1 237
e 2 3
e 2 38
e 2 44
e 2 133
e 2 201
e 4 10
e 4 29
e 4 38
e 4 41
e 4 44
e 4 104
e 4 206
e 5 30
e 5 98
e 5 135
e 5 141
e 5 151
e 5 152
e 6 86
e 6 88
e 6 89
e 6 92
e 7 29
e 7 67
e 7 121
e 7 122
e 7 123
e 7 190
e 7 192
e 8 9
e 8 133
e 8 159
e 8 201
e 8 214
e 9 155
e 9 159
e 9 184
e 9 201
e 10 29
e 10 41
e 10 46
e 10 67
e 10 109
e 10 230
e 11 18
e 11 25
e 11 50
e 11 83
e 11 106
e 12 23
e 12 33
e 12 36
e 12 114
e 12 115
e 12 172
e 12 179
e 13 63
e 13 70
e 13 71
e 13 110
e 13 114
e 13 115
e 13 147
e 13 164
e 14 15
e 14 118
e 14 120
e 14 199
e 14 200
e 15 17
e 15 120
e 15 140
e 15 200
e 15 205
e 15 237
e 16 55
e 16 64
e 16 65
e 16 101
e 16 108
e 16 124
e 16 217
e 16 220
e 17 120
e 17 162
e 17 189
e 17 205
e 17 241
e 18 25
e 18 28
e 18 52
e 18 106
e 18 212
e 18 213
e 18 217
e 18 219
e 19 63
e 19 144
e 19 146
e 19 147
e 19 163
e 19 180
e 20 110
e 20 113
e 20 176
e 20 180
e 20 181
e 21 22
e 21 48
e 21 82
e 21 145
e 21 147
e 21 149
e 21 239
e 22 32
e 22 147
e 22 148
e 22 204
e 22 238
e 22 239
e 23 113
e 23 114
e 23 179
e 24 69
e 24 97
e 24 182
e 24 202
e 24 229
e 24 234
e 25 28
e 25 50
e 25 154
e 25 210
e 26 27
e 26 157
e 26 158
e 27 156
e 27 157
e 28 182
e 28 202
e 28 217
e 29 67
e 29 104
e 29 121
e 30 135
e 30 155
e 30 210
e 31 32
e 31 34
e 31 35
e 31 36
e 31 99
e 31 137
e 31 138
e 31 143
e 31 177
e 31 223
e 32 34
e 32 72
e 32 137
e 32 148
e 32 204
e 32 216
e 33 35
e 33 36
e 33 99
e 33 100
e 34 35
e 34 172
e 34 216
e 35 100
e 35 172
e 36 99
e 36 115
e 36 174
e 37 39
e 37 40
e 37 211
e 38 39
e 38 41
e 38 44
e 38 211
e 39 40
e 39 41
e 39 211
e 40 41
e 40 211
e 41 46
e 41 211
e 41 237
e 42 43
e 42 97
e 42 121
e 42 229
e 43 121
e 43 123
e 43 229
e 44 45
e 44 135
e 44 201
e 44 206
e 46 47
e 46 109
e 46 237
e 47 81
e 47 96
e 47 109
e 47 140
e 47 237
e 48 49
e 48 81
e 48 82
e 48 93
e 48 96
e 48 145
e 48 149
e 50 51
e 50 210
e 51 107
e 51 183
e 51 184
e 51 210
e 52 53
e 52 57
e 52 80
e 52 126
e 52 127
e 52 213
e 52 218
e 52 219
e 52 221
e 52 225
e 53 55
e 53 56
e 53 57
e 53 60
e 53 80
e 53 125
e 54 56
e 54 58
e 54 207
e 54 221
e 54 224
e 55 80
e 55 84
e 55 108
e 55 124
e 55 125
e 56 58
e 56 60
e 56 125
e 56 224
e 57 58
e 57 60
e 57 221
e 58 60
e 58 221
e 59 127
e 59 128
e 59 207
e 59 221
e 59 222
e 59 225
e 59 227
e 61 62
e 61 205
e 62 133
e 62 187
e 62 205
e 62 214
e 62 237
e 63 110
e 63 147
e 64 65
e 65 101
e 65 102
e 66 129
e 66 130
e 66 133
e 66 134
e 66 214
e 67 68
e 67 153
e 67 192
e 67 230
e 68 153
e 68 193
e 68 194
e 68 230
e 69 103
e 69 202
e 69 209
e 69 217
e 70 71
e 70 74
e 70 115
e 70 169
e 71 143
e 71 150
e 71 164
e 71 169
e 72 148
e 72 165
e 72 175
e 72 178
e 72 216
e 73 165
e 73 168
e 73 173
e 73 175
e 74 115
e 74 169
e 74 174
e 74 177
e 75 111
e 75 146
e 75 148
e 75 163
e 75 168
e 75 175
e 76 111
e 76 112
e 76 179
e 76 181
e 77 78
e 77 79
e 77 80
e 77 84
e 77 213
e 78 79
e 78 89
e 78 213
e 79 87
e 79 89
e 80 84
e 80 213
e 81 82
e 81 96
e 81 109
e 81 116
e 81 117
e 81 239
e 82 116
e 82 117
e 83 106
e 84 85
e 84 86
e 84 87
e 84 88
e 84 89
e 85 87
e 86 88
e 86 89
e 87 89
e 88 92
e 89 92
e 89 106
e 89 170
e 89 213
e 90 91
e 90 122
e 90 190
e 91 156
e 91 190
e 92 170
e 93 94
e 93 95
e 93 96
e 93 241
e 94 95
e 94 96
e 94 185
e 94 197
e 95 96
e 95 185
e 95 186
e 96 139
e 96 185
e 96 197
e 96 241
e 97 98
e 97 104
e 97 105
e 97 121
e 97 182
e 97 229
e 98 104
e 98 135
e 98 206
e 99 100
e 99 223
e 100 223
e 101 102
e 101 103
e 101 217
e 102 103
e 102 209
e 103 209
e 103 217
e 104 105
e 104 121
e 104 206
e 106 170
e 106 171
e 106 213
e 107 159
e 107 183
e 107 184
e 109 230
e 109 239
e 110 113
e 110 114
e 110 180
e 111 112
e 111 144
e 111 163
e 111 176
e 112 168
e 112 173
e 113 114
e 113 179
e 113 181
e 115 174
e 116 117
e 118 119
e 118 198
e 118 199
e 118 200
e 119 198
e 119 200
e 120 139
e 120 140
e 120 198
e 120 199
e 120 200
e 120 241
e 121 123
e 122 123
e 122 190
e 124 125
e 124 220
e 124 224
e 125 224
e 126 127
e 126 221
e 126 222
e 127 222
e 127 225
e 128 207
e 128 226
e 128 227
e 129 130
e 129 131
e 129 132
e 129 133
e 129 214
e 130 132
e 130 134
e 131 132
e 131 134
e 131 214
e 132 134
e 133 201
e 133 214
e 134 214
e 135 155
e 135 201
e 135 206
e 136 137
e 136 138
e 136 161
e 136 203
e 136 236
e 137 138
e 137 203
e 137 204
e 139 140
e 139 241
e 140 237
e 141 151
e 141 152
e 142 143
e 142 145
e 142 147
e 142 150
e 142 166
e 142 167
e 143 150
e 143 169
e 143 177
e 144 163
e 144 176
e 144 180
e 145 147
e 145 149
e 146 147
e 146 148
e 146 163
e 147 148
e 147 150
e 147 164
e 148 175
e 148 178
e 150 164
e 150 166
e 150 167
e 151 152
e 153 193
e 153 194
e 153 230
e 154 210
e 155 184
e 155 201
e 155 210
e 156 157
e 156 161
e 156 190
e 156 191
e 156 203
e 157 158
e 159 184
e 159 214
e 160 161
e 160 215
e 161 203
e 161 235
e 161 236
e 162 189
e 162 231
e 165 172
e 165 173
e 165 216
e 166 167
e 168 173
e 168 175
e 169 177
e 170 171
e 172 173
e 172 179
e 173 179
e 174 177
e 175 178
e 176 180
e 176 181
e 179 181
e 182 202
e 183 184
e 184 210
e 185 186
e 185 197
e 187 188
e 187 189
e 187 205
e 187 214
e 188 189
e 188 232
e 189 205
e 189 231
e 189 232
e 190 191
e 190 192
e 191 192
e 191 203
e 191 204
e 191 230
e 191 238
e 192 230
e 193 194
e 193 230
e 195 196
e 195 235
e 198 199
e 198 200
e 202 217
e 203 204
e 204 238
e 205 237
e 207 221
e 207 226
e 208 209
e 209 233
e 209 234
e 212 219
e 217 219
e 217 220
e 218 219
e 218 220
e 218 225
e 218 227
e 219 220
e 220 224
e 220 227
e 221 222
e 224 226
e 224 227
e 225 227
e 226 227
e 228 229
e 229 234
e 230 238
e 230 239
e 233 234
e 235 236
e 238 239
e 240 241
c k 1
